p cnf 308 2383
134 137 154 194 249 0
108 252 0
136 147 165 307 0
62 166 191 0
129 142 158 159 0
122 153 161 175 0
53 115 117 118 0
107 109 148 167 170 0
83 173 174 180 0
185 188 193 197 264 0
133 157 162 266 0
125 195 0
151 196 199 271 273 0
145 202 302 0
192 277 283 285 0
102 104 105 208 0
96 98 99 127 139 0
89 92 95 114 0
86 87 106 0
79 80 84 168 172 0
76 77 182 187 0
72 73 74 75 131 160 0
71 123 132 143 156 0
68 69 110 150 155 0
65 66 67 149 0
61 63 164 186 203 0
56 57 59 205 207 0
54 97 101 0
52 88 94 116 120 121 0
50 78 82 0
48 177 209 0
184 210 212 0
163 213 214 216 0
200 217 218 0
112 152 219 221 0
222 223 225 226 0
228 230 0
100 231 233 0
234 236 237 0
81 85 239 240 0
183 241 242 243 0
124 244 0
135 144 246 247 0
138 204 248 250 0
58 60 251 253 0
190 254 0
51 171 176 178 0
181 211 255 0
189 256 257 259 0
169 215 260 0
113 198 220 262 263 0
224 265 267 269 0
227 229 0
270 272 274 0
206 232 276 0
140 235 278 280 282 284 0
90 238 286 287 0
-137 -300 0
-70 -300 0
-136 -300 0
-166 -300 0
-288 -300 0
-158 -300 0
-161 -300 0
-70 -137 0
-136 -137 0
-137 -166 0
-137 -288 0
-137 -158 0
-137 -161 0
-70 -136 0
-70 -166 0
-70 -288 0
-70 -158 0
-70 -161 0
-136 -166 0
-136 -288 0
-136 -158 0
-136 -161 0
-166 -288 0
-158 -166 0
-161 -166 0
-158 -288 0
-161 -288 0
-158 -161 0
-109 -117 0
-83 -117 0
-117 -197 0
-117 -266 0
-117 -125 0
-117 -196 0
-117 -268 0
-83 -109 0
-109 -197 0
-109 -266 0
-109 -125 0
-109 -196 0
-109 -268 0
-83 -197 0
-83 -266 0
-83 -125 0
-83 -196 0
-83 -268 0
-197 -266 0
-125 -197 0
-196 -197 0
-197 -268 0
-125 -266 0
-196 -266 0
-266 -268 0
-125 -196 0
-125 -268 0
-196 -268 0
-277 -302 0
-208 -302 0
-279 -302 0
-95 -302 0
-87 -302 0
-168 -302 0
-289 -302 0
-208 -277 0
-277 -279 0
-95 -277 0
-87 -277 0
-168 -277 0
-277 -289 0
-208 -279 0
-95 -208 0
-87 -208 0
-168 -208 0
-208 -289 0
-95 -279 0
-87 -279 0
-168 -279 0
-279 -289 0
-87 -95 0
-95 -168 0
-95 -289 0
-87 -168 0
-87 -289 0
-168 -289 0
-77 -160 0
-77 -156 0
-77 -164 0
-77 -205 0
-77 -101 0
-156 -160 0
-160 -164 0
-160 -205 0
-101 -160 0
-156 -164 0
-156 -205 0
-101 -156 0
-164 -205 0
-101 -164 0
-101 -205 0
-121 -130 0
-130 -290 0
-130 -291 0
-130 -213 0
-130 -217 0
-121 -290 0
-121 -291 0
-121 -213 0
-121 -217 0
-290 -291 0
-213 -290 0
-217 -290 0
-213 -291 0
-217 -291 0
-213 -217 0
-85 -241 0
-85 -292 0
-85 -246 0
-85 -293 0
-85 -294 0
-85 -248 0
-64 -85 0
-241 -292 0
-241 -246 0
-241 -293 0
-241 -294 0
-241 -248 0
-64 -241 0
-246 -292 0
-292 -293 0
-292 -294 0
-248 -292 0
-64 -292 0
-246 -293 0
-246 -294 0
-246 -248 0
-64 -246 0
-293 -294 0
-248 -293 0
-64 -293 0
-248 -294 0
-64 -294 0
-64 -248 0
-55 -60 0
-60 -254 0
-60 -295 0
-60 -171 0
-60 -181 0
-60 -256 0
-60 -169 0
-55 -254 0
-55 -295 0
-55 -171 0
-55 -181 0
-55 -256 0
-55 -169 0
-254 -295 0
-171 -254 0
-181 -254 0
-254 -256 0
-169 -254 0
-171 -295 0
-181 -295 0
-256 -295 0
-169 -295 0
-171 -181 0
-171 -256 0
-169 -171 0
-181 -256 0
-169 -181 0
-169 -256 0
-179 -262 0
-179 -265 0
-179 -270 0
-179 -206 0
-103 -179 0
-140 -179 0
-179 -286 0
-262 -265 0
-262 -270 0
-206 -262 0
-103 -262 0
-140 -262 0
-262 -286 0
-265 -270 0
-206 -265 0
-103 -265 0
-140 -265 0
-265 -286 0
-206 -270 0
-103 -270 0
-140 -270 0
-270 -286 0
-103 -206 0
-140 -206 0
-206 -286 0
-103 -140 0
-103 -286 0
-140 -286 0
-117 -300 0
-300 -302 0
-77 -300 0
-130 -300 0
-85 -300 0
-60 -300 0
-179 -300 0
-117 -302 0
-77 -117 0
-117 -130 0
-85 -117 0
-60 -117 0
-117 -179 0
-77 -302 0
-130 -302 0
-85 -302 0
-60 -302 0
-179 -302 0
-77 -130 0
-77 -85 0
-60 -77 0
-77 -179 0
-85 -130 0
-60 -130 0
-130 -179 0
-60 -85 0
-85 -179 0
-60 -179 0
-109 -137 0
-137 -277 0
-137 -160 0
-121 -137 0
-137 -241 0
-55 -137 0
-137 -262 0
-109 -277 0
-109 -160 0
-109 -121 0
-109 -241 0
-55 -109 0
-109 -262 0
-160 -277 0
-121 -277 0
-241 -277 0
-55 -277 0
-262 -277 0
-121 -160 0
-160 -241 0
-55 -160 0
-160 -262 0
-121 -241 0
-55 -121 0
-121 -262 0
-55 -241 0
-241 -262 0
-55 -262 0
-70 -83 0
-70 -208 0
-70 -156 0
-70 -290 0
-70 -292 0
-70 -254 0
-70 -265 0
-83 -208 0
-83 -156 0
-83 -290 0
-83 -292 0
-83 -254 0
-83 -265 0
-156 -208 0
-208 -290 0
-208 -292 0
-208 -254 0
-208 -265 0
-156 -290 0
-156 -292 0
-156 -254 0
-156 -265 0
-290 -292 0
-254 -290 0
-265 -290 0
-254 -292 0
-265 -292 0
-254 -265 0
-136 -197 0
-136 -279 0
-136 -246 0
-136 -295 0
-136 -270 0
-197 -279 0
-197 -246 0
-197 -295 0
-197 -270 0
-246 -279 0
-279 -295 0
-270 -279 0
-246 -295 0
-246 -270 0
-270 -295 0
-166 -266 0
-95 -166 0
-166 -293 0
-166 -171 0
-166 -206 0
-95 -266 0
-266 -293 0
-171 -266 0
-206 -266 0
-95 -293 0
-95 -171 0
-95 -206 0
-171 -293 0
-206 -293 0
-171 -206 0
-125 -288 0
-87 -288 0
-164 -288 0
-288 -291 0
-288 -294 0
-181 -288 0
-103 -288 0
-87 -125 0
-125 -164 0
-125 -291 0
-125 -294 0
-125 -181 0
-103 -125 0
-87 -164 0
-87 -291 0
-87 -294 0
-87 -181 0
-87 -103 0
-164 -291 0
-164 -294 0
-164 -181 0
-103 -164 0
-291 -294 0
-181 -291 0
-103 -291 0
-181 -294 0
-103 -294 0
-103 -181 0
-158 -196 0
-158 -168 0
-158 -205 0
-158 -213 0
-158 -248 0
-158 -256 0
-140 -158 0
-168 -196 0
-196 -205 0
-196 -213 0
-196 -248 0
-196 -256 0
-140 -196 0
-168 -205 0
-168 -213 0
-168 -248 0
-168 -256 0
-140 -168 0
-205 -213 0
-205 -248 0
-205 -256 0
-140 -205 0
-213 -248 0
-213 -256 0
-140 -213 0
-248 -256 0
-140 -248 0
-140 -256 0
-161 -268 0
-161 -289 0
-101 -161 0
-161 -217 0
-64 -161 0
-161 -169 0
-161 -286 0
-268 -289 0
-101 -268 0
-217 -268 0
-64 -268 0
-169 -268 0
-268 -286 0
-101 -289 0
-217 -289 0
-64 -289 0
-169 -289 0
-286 -289 0
-101 -217 0
-64 -101 0
-101 -169 0
-101 -286 0
-64 -217 0
-169 -217 0
-217 -286 0
-64 -169 0
-64 -286 0
-169 -286 0
-134 -245 0
-111 -245 0
-245 -307 0
-62 -245 0
-111 -134 0
-134 -307 0
-62 -134 0
-111 -307 0
-62 -111 0
-62 -307 0
-118 -148 0
-118 -173 0
-118 -185 0
-118 -133 0
-148 -173 0
-148 -185 0
-133 -148 0
-173 -185 0
-133 -173 0
-133 -185 0
-131 -182 0
-123 -182 0
-67 -182 0
-182 -296 0
-182 -203 0
-182 -207 0
-123 -131 0
-67 -131 0
-131 -296 0
-131 -203 0
-131 -207 0
-67 -123 0
-123 -296 0
-123 -203 0
-123 -207 0
-67 -296 0
-67 -203 0
-67 -207 0
-203 -296 0
-207 -296 0
-203 -207 0
-94 -297 0
-297 -298 0
-177 -297 0
-210 -297 0
-258 -297 0
-163 -297 0
-94 -298 0
-94 -177 0
-94 -210 0
-94 -258 0
-94 -163 0
-177 -298 0
-210 -298 0
-258 -298 0
-163 -298 0
-177 -210 0
-177 -258 0
-163 -177 0
-210 -258 0
-163 -210 0
-163 -258 0
-112 -222 0
-112 -228 0
-112 -231 0
-112 -128 0
-112 -234 0
-93 -112 0
-222 -228 0
-222 -231 0
-128 -222 0
-222 -234 0
-93 -222 0
-228 -231 0
-128 -228 0
-228 -234 0
-93 -228 0
-128 -231 0
-231 -234 0
-93 -231 0
-128 -234 0
-93 -128 0
-93 -234 0
-81 -242 0
-81 -299 0
-81 -301 0
-81 -138 0
-242 -299 0
-242 -301 0
-138 -242 0
-299 -301 0
-138 -299 0
-138 -301 0
-126 -198 0
-126 -267 0
-126 -303 0
-126 -278 0
-198 -267 0
-198 -303 0
-198 -278 0
-267 -303 0
-267 -278 0
-278 -303 0
-118 -245 0
-182 -245 0
-245 -297 0
-112 -245 0
-81 -245 0
-126 -245 0
-118 -182 0
-118 -297 0
-112 -118 0
-81 -118 0
-118 -126 0
-182 -297 0
-112 -182 0
-81 -182 0
-126 -182 0
-112 -297 0
-81 -297 0
-126 -297 0
-81 -112 0
-112 -126 0
-81 -126 0
-134 -148 0
-131 -134 0
-94 -134 0
-134 -222 0
-134 -242 0
-134 -198 0
-131 -148 0
-94 -148 0
-148 -222 0
-148 -242 0
-148 -198 0
-94 -131 0
-131 -222 0
-131 -242 0
-131 -198 0
-94 -222 0
-94 -242 0
-94 -198 0
-222 -242 0
-198 -222 0
-198 -242 0
-111 -173 0
-111 -123 0
-111 -298 0
-111 -228 0
-111 -299 0
-111 -267 0
-123 -173 0
-173 -298 0
-173 -228 0
-173 -299 0
-173 -267 0
-123 -298 0
-123 -228 0
-123 -299 0
-123 -267 0
-228 -298 0
-298 -299 0
-267 -298 0
-228 -299 0
-228 -267 0
-267 -299 0
-185 -307 0
-67 -307 0
-177 -307 0
-231 -307 0
-67 -185 0
-177 -185 0
-185 -231 0
-67 -177 0
-67 -231 0
-177 -231 0
-62 -133 0
-62 -296 0
-62 -210 0
-62 -128 0
-133 -296 0
-133 -210 0
-128 -133 0
-210 -296 0
-128 -296 0
-128 -210 0
-203 -258 0
-203 -234 0
-203 -301 0
-203 -303 0
-234 -258 0
-258 -301 0
-258 -303 0
-234 -301 0
-234 -303 0
-301 -303 0
-163 -207 0
-93 -207 0
-138 -207 0
-207 -278 0
-93 -163 0
-138 -163 0
-163 -278 0
-93 -138 0
-93 -278 0
-138 -278 0
-49 -188 0
-49 -199 0
-49 -275 0
-188 -199 0
-188 -275 0
-199 -275 0
-99 -281 0
-99 -172 0
-99 -304 0
-172 -281 0
-281 -304 0
-172 -304 0
-120 -305 0
-214 -305 0
-218 -305 0
-120 -214 0
-120 -218 0
-214 -218 0
-219 -223 0
-91 -219 0
-219 -306 0
-91 -223 0
-223 -306 0
-91 -306 0
-239 -243 0
-239 -244 0
-135 -239 0
-243 -244 0
-135 -243 0
-135 -244 0
-58 -308 0
-58 -119 0
-47 -58 0
-119 -308 0
-47 -308 0
-47 -119 0
-219 -305 0
-239 -305 0
-58 -305 0
-219 -239 0
-58 -219 0
-58 -239 0
-120 -223 0
-120 -243 0
-120 -308 0
-223 -243 0
-223 -308 0
-243 -308 0
-49 -99 0
-49 -244 0
-49 -119 0
-99 -244 0
-99 -119 0
-119 -244 0
-188 -281 0
-135 -188 0
-47 -188 0
-135 -281 0
-47 -281 0
-47 -135 0
-172 -199 0
-199 -214 0
-91 -199 0
-172 -214 0
-91 -172 0
-91 -214 0
-275 -304 0
-218 -275 0
-275 -306 0
-218 -304 0
-304 -306 0
-218 -306 0
-46 -249 0
-46 -159 0
-46 -153 0
-159 -249 0
-153 -249 0
-153 -159 0
-53 -107 0
-53 -271 0
-44 -53 0
-107 -271 0
-44 -107 0
-44 -271 0
-75 -187 0
-155 -187 0
-43 -187 0
-75 -155 0
-43 -75 0
-43 -155 0
-152 -225 0
-42 -152 0
-41 -152 0
-42 -225 0
-41 -225 0
-41 -42 0
-40 -51 0
-40 -189 0
-40 -260 0
-51 -189 0
-51 -260 0
-189 -260 0
-227 -276 0
-227 -280 0
-227 -238 0
-276 -280 0
-238 -276 0
-238 -280 0
-46 -53 0
-46 -187 0
-46 -152 0
-53 -187 0
-53 -152 0
-152 -187 0
-107 -249 0
-75 -249 0
-225 -249 0
-75 -107 0
-107 -225 0
-75 -225 0
-42 -155 0
-40 -155 0
-155 -227 0
-40 -42 0
-42 -227 0
-40 -227 0
-41 -43 0
-43 -51 0
-43 -276 0
-41 -51 0
-41 -276 0
-51 -276 0
-159 -271 0
-159 -189 0
-159 -280 0
-189 -271 0
-271 -280 0
-189 -280 0
-44 -153 0
-153 -260 0
-153 -238 0
-44 -260 0
-44 -238 0
-238 -260 0
-38 -39 0
-39 -129 0
-39 -122 0
-38 -129 0
-38 -122 0
-122 -129 0
-105 -106 0
-84 -105 0
-37 -105 0
-84 -106 0
-37 -106 0
-37 -84 0
-59 -63 0
-54 -63 0
-54 -59 0
-45 -144 0
-144 -250 0
-36 -144 0
-45 -250 0
-36 -45 0
-36 -250 0
-35 -272 0
-272 -282 0
-272 -287 0
-35 -282 0
-35 -287 0
-282 -287 0
-39 -105 0
-144 -272 0
-38 -106 0
-38 -63 0
-38 -45 0
-35 -38 0
-63 -106 0
-45 -106 0
-35 -106 0
-45 -63 0
-35 -63 0
-35 -45 0
-84 -129 0
-59 -129 0
-129 -250 0
-129 -282 0
-59 -84 0
-84 -250 0
-84 -282 0
-59 -250 0
-59 -282 0
-250 -282 0
-37 -122 0
-54 -122 0
-36 -122 0
-122 -287 0
-37 -54 0
-36 -37 0
-37 -287 0
-36 -54 0
-54 -287 0
-36 -287 0
-34 -162 0
-34 -273 0
-162 -273 0
-92 -127 0
-80 -127 0
-80 -92 0
-74 -132 0
-69 -74 0
-32 -74 0
-69 -132 0
-32 -132 0
-32 -69 0
-31 -116 0
-82 -116 0
-116 -184 0
-31 -82 0
-31 -184 0
-82 -184 0
-263 -269 0
-74 -116 0
-74 -263 0
-116 -263 0
-31 -132 0
-132 -269 0
-31 -269 0
-34 -127 0
-34 -69 0
-34 -82 0
-69 -127 0
-82 -127 0
-69 -82 0
-92 -162 0
-32 -162 0
-162 -184 0
-32 -92 0
-92 -184 0
-32 -184 0
-80 -273 0
-30 -194 0
-30 -252 0
-30 -147 0
-30 -191 0
-194 -252 0
-147 -194 0
-191 -194 0
-147 -252 0
-191 -252 0
-147 -191 0
-202 -283 0
-98 -202 0
-29 -202 0
-89 -202 0
-98 -283 0
-29 -283 0
-89 -283 0
-29 -98 0
-89 -98 0
-29 -89 0
-66 -110 0
-28 -110 0
-61 -110 0
-57 -110 0
-28 -66 0
-61 -66 0
-57 -66 0
-28 -61 0
-28 -57 0
-57 -61 0
-27 -233 0
-26 -27 0
-27 -236 0
-25 -27 0
-26 -233 0
-233 -236 0
-25 -233 0
-26 -236 0
-25 -26 0
-25 -236 0
-183 -240 0
-124 -240 0
-240 -247 0
-24 -240 0
-23 -240 0
-204 -240 0
-124 -183 0
-183 -247 0
-24 -183 0
-23 -183 0
-183 -204 0
-124 -247 0
-24 -124 0
-23 -124 0
-124 -204 0
-24 -247 0
-23 -247 0
-204 -247 0
-23 -24 0
-24 -204 0
-23 -204 0
-22 -251 0
-21 -251 0
-20 -251 0
-178 -251 0
-211 -251 0
-251 -257 0
-21 -22 0
-20 -22 0
-22 -178 0
-22 -211 0
-22 -257 0
-20 -21 0
-21 -178 0
-21 -211 0
-21 -257 0
-20 -178 0
-20 -211 0
-20 -257 0
-178 -211 0
-178 -257 0
-211 -257 0
-33 -113 0
-33 -229 0
-33 -274 0
-33 -232 0
-19 -33 0
-33 -235 0
-113 -229 0
-113 -274 0
-113 -232 0
-19 -113 0
-113 -235 0
-229 -274 0
-229 -232 0
-19 -229 0
-229 -235 0
-232 -274 0
-19 -274 0
-235 -274 0
-19 -232 0
-232 -235 0
-19 -235 0
-30 -202 0
-30 -240 0
-30 -251 0
-30 -33 0
-202 -240 0
-202 -251 0
-33 -202 0
-240 -251 0
-33 -240 0
-33 -251 0
-194 -283 0
-183 -194 0
-22 -194 0
-113 -194 0
-183 -283 0
-22 -283 0
-113 -283 0
-22 -183 0
-113 -183 0
-22 -113 0
-98 -252 0
-110 -252 0
-27 -252 0
-124 -252 0
-21 -252 0
-229 -252 0
-98 -110 0
-27 -98 0
-98 -124 0
-21 -98 0
-98 -229 0
-27 -110 0
-110 -124 0
-21 -110 0
-110 -229 0
-27 -124 0
-21 -27 0
-27 -229 0
-21 -124 0
-124 -229 0
-21 -229 0
-29 -147 0
-66 -147 0
-147 -233 0
-147 -247 0
-20 -147 0
-147 -274 0
-29 -66 0
-29 -233 0
-29 -247 0
-20 -29 0
-29 -274 0
-66 -233 0
-66 -247 0
-20 -66 0
-66 -274 0
-233 -247 0
-20 -233 0
-233 -274 0
-20 -247 0
-247 -274 0
-20 -274 0
-89 -191 0
-28 -191 0
-26 -191 0
-24 -191 0
-178 -191 0
-191 -232 0
-28 -89 0
-26 -89 0
-24 -89 0
-89 -178 0
-89 -232 0
-26 -28 0
-24 -28 0
-28 -178 0
-28 -232 0
-24 -26 0
-26 -178 0
-26 -232 0
-24 -178 0
-24 -232 0
-178 -232 0
-61 -236 0
-23 -61 0
-61 -211 0
-19 -61 0
-23 -236 0
-211 -236 0
-19 -236 0
-23 -211 0
-19 -23 0
-19 -211 0
-25 -57 0
-57 -204 0
-57 -257 0
-57 -235 0
-25 -204 0
-25 -257 0
-25 -235 0
-204 -257 0
-204 -235 0
-235 -257 0
-18 -154 0
-17 -18 0
-18 -108 0
-18 -165 0
-16 -18 0
-18 -142 0
-18 -175 0
-17 -154 0
-108 -154 0
-154 -165 0
-16 -154 0
-142 -154 0
-154 -175 0
-17 -108 0
-17 -165 0
-16 -17 0
-17 -142 0
-17 -175 0
-108 -165 0
-16 -108 0
-108 -142 0
-108 -175 0
-16 -165 0
-142 -165 0
-165 -175 0
-16 -142 0
-16 -175 0
-142 -175 0
-115 -167 0
-115 -174 0
-14 -115 0
-115 -193 0
-115 -195 0
-115 -151 0
-13 -115 0
-167 -174 0
-14 -167 0
-167 -193 0
-167 -195 0
-151 -167 0
-13 -167 0
-14 -174 0
-174 -193 0
-174 -195 0
-151 -174 0
-13 -174 0
-14 -193 0
-14 -195 0
-14 -151 0
-13 -14 0
-193 -195 0
-151 -193 0
-13 -193 0
-151 -195 0
-13 -195 0
-13 -151 0
-145 -192 0
-104 -145 0
-96 -145 0
-12 -145 0
-86 -145 0
-79 -145 0
-11 -145 0
-104 -192 0
-96 -192 0
-12 -192 0
-86 -192 0
-79 -192 0
-11 -192 0
-96 -104 0
-12 -104 0
-86 -104 0
-79 -104 0
-11 -104 0
-12 -96 0
-86 -96 0
-79 -96 0
-11 -96 0
-12 -86 0
-12 -79 0
-11 -12 0
-79 -86 0
-11 -86 0
-11 -79 0
-73 -76 0
-71 -76 0
-68 -76 0
-65 -76 0
-76 -186 0
-56 -76 0
-76 -97 0
-71 -73 0
-68 -73 0
-65 -73 0
-73 -186 0
-56 -73 0
-73 -97 0
-68 -71 0
-65 -71 0
-71 -186 0
-56 -71 0
-71 -97 0
-65 -68 0
-68 -186 0
-56 -68 0
-68 -97 0
-65 -186 0
-56 -65 0
-65 -97 0
-56 -186 0
-97 -186 0
-56 -97 0
-10 -88 0
-9 -10 0
-10 -50 0
-10 -48 0
-8 -10 0
-10 -216 0
-10 -200 0
-9 -88 0
-50 -88 0
-48 -88 0
-8 -88 0
-88 -216 0
-88 -200 0
-9 -50 0
-9 -48 0
-8 -9 0
-9 -216 0
-9 -200 0
-48 -50 0
-8 -50 0
-50 -216 0
-50 -200 0
-8 -48 0
-48 -216 0
-48 -200 0
-8 -216 0
-8 -200 0
-200 -216 0
-221 -226 0
-221 -230 0
-7 -221 0
-100 -221 0
-221 -237 0
-6 -221 0
-5 -221 0
-226 -230 0
-7 -226 0
-100 -226 0
-226 -237 0
-6 -226 0
-5 -226 0
-7 -230 0
-100 -230 0
-230 -237 0
-6 -230 0
-5 -230 0
-7 -100 0
-7 -237 0
-6 -7 0
-5 -7 0
-100 -237 0
-6 -100 0
-5 -100 0
-6 -237 0
-5 -237 0
-5 -6 0
-146 -253 0
-190 -253 0
-253 -255 0
-253 -259 0
-215 -253 0
-146 -190 0
-146 -255 0
-146 -259 0
-146 -215 0
-190 -255 0
-190 -259 0
-190 -215 0
-255 -259 0
-215 -255 0
-215 -259 0
-4 -220 0
-4 -224 0
-4 -201 0
-4 -284 0
-4 -90 0
-220 -224 0
-201 -220 0
-220 -284 0
-90 -220 0
-201 -224 0
-224 -284 0
-90 -224 0
-201 -284 0
-90 -201 0
-90 -284 0
-18 -115 0
-18 -145 0
-18 -76 0
-10 -18 0
-18 -221 0
-18 -253 0
-4 -18 0
-115 -145 0
-76 -115 0
-10 -115 0
-115 -221 0
-115 -253 0
-4 -115 0
-76 -145 0
-10 -145 0
-145 -221 0
-145 -253 0
-4 -145 0
-10 -76 0
-76 -221 0
-76 -253 0
-4 -76 0
-10 -221 0
-10 -253 0
-4 -10 0
-221 -253 0
-4 -221 0
-4 -253 0
-154 -167 0
-154 -192 0
-73 -154 0
-88 -154 0
-154 -226 0
-146 -154 0
-154 -220 0
-167 -192 0
-73 -167 0
-88 -167 0
-167 -226 0
-146 -167 0
-167 -220 0
-73 -192 0
-88 -192 0
-192 -226 0
-146 -192 0
-192 -220 0
-73 -88 0
-73 -226 0
-73 -146 0
-73 -220 0
-88 -226 0
-88 -146 0
-88 -220 0
-146 -226 0
-220 -226 0
-146 -220 0
-17 -174 0
-17 -104 0
-17 -71 0
-9 -17 0
-17 -230 0
-17 -190 0
-17 -224 0
-104 -174 0
-71 -174 0
-9 -174 0
-174 -230 0
-174 -190 0
-174 -224 0
-71 -104 0
-9 -104 0
-104 -230 0
-104 -190 0
-104 -224 0
-9 -71 0
-71 -230 0
-71 -190 0
-71 -224 0
-9 -230 0
-9 -190 0
-9 -224 0
-190 -230 0
-224 -230 0
-190 -224 0
-14 -108 0
-96 -108 0
-68 -108 0
-50 -108 0
-7 -108 0
-14 -96 0
-14 -68 0
-14 -50 0
-7 -14 0
-68 -96 0
-50 -96 0
-7 -96 0
-50 -68 0
-7 -68 0
-7 -50 0
-165 -193 0
-12 -165 0
-65 -165 0
-48 -165 0
-100 -165 0
-12 -193 0
-65 -193 0
-48 -193 0
-100 -193 0
-12 -65 0
-12 -48 0
-12 -100 0
-48 -65 0
-65 -100 0
-48 -100 0
-16 -195 0
-16 -86 0
-16 -186 0
-8 -16 0
-16 -237 0
-16 -255 0
-16 -201 0
-86 -195 0
-186 -195 0
-8 -195 0
-195 -237 0
-195 -255 0
-195 -201 0
-86 -186 0
-8 -86 0
-86 -237 0
-86 -255 0
-86 -201 0
-8 -186 0
-186 -237 0
-186 -255 0
-186 -201 0
-8 -237 0
-8 -255 0
-8 -201 0
-237 -255 0
-201 -237 0
-201 -255 0
-142 -151 0
-79 -142 0
-56 -142 0
-142 -216 0
-6 -142 0
-142 -259 0
-142 -284 0
-79 -151 0
-56 -151 0
-151 -216 0
-6 -151 0
-151 -259 0
-151 -284 0
-56 -79 0
-79 -216 0
-6 -79 0
-79 -259 0
-79 -284 0
-56 -216 0
-6 -56 0
-56 -259 0
-56 -284 0
-6 -216 0
-216 -259 0
-216 -284 0
-6 -259 0
-6 -284 0
-259 -284 0
-13 -175 0
-11 -175 0
-97 -175 0
-175 -200 0
-5 -175 0
-175 -215 0
-90 -175 0
-11 -13 0
-13 -97 0
-13 -200 0
-5 -13 0
-13 -215 0
-13 -90 0
-11 -97 0
-11 -200 0
-5 -11 0
-11 -215 0
-11 -90 0
-97 -200 0
-5 -97 0
-97 -215 0
-90 -97 0
-5 -200 0
-200 -215 0
-90 -200 0
-5 -215 0
-5 -90 0
-90 -215 0
-170 -180 0
-170 -261 0
-170 -264 0
-157 -170 0
-180 -261 0
-180 -264 0
-157 -180 0
-261 -264 0
-157 -261 0
-157 -264 0
-102 -285 0
-139 -285 0
-3 -285 0
-114 -285 0
-102 -139 0
-3 -102 0
-102 -114 0
-3 -139 0
-114 -139 0
-3 -114 0
-72 -143 0
-72 -150 0
-72 -149 0
-2 -72 0
-143 -150 0
-143 -149 0
-2 -143 0
-149 -150 0
-2 -150 0
-2 -149 0
-1 -52 0
-52 -78 0
-52 -209 0
-52 -212 0
-1 -78 0
-1 -209 0
-1 -212 0
-78 -209 0
-78 -212 0
-209 -212 0
-15 -141 0
-15 -176 0
-141 -176 0
-170 -285 0
-72 -170 0
-52 -170 0
-72 -285 0
-52 -285 0
-52 -72 0
-102 -180 0
-143 -180 0
-1 -180 0
-102 -143 0
-1 -102 0
-1 -143 0
-139 -261 0
-150 -261 0
-78 -261 0
-15 -261 0
-139 -150 0
-78 -139 0
-15 -139 0
-78 -150 0
-15 -150 0
-15 -78 0
-3 -264 0
-149 -264 0
-209 -264 0
-141 -264 0
-3 -149 0
-3 -209 0
-3 -141 0
-149 -209 0
-141 -149 0
-141 -209 0
-114 -157 0
-2 -157 0
-157 -212 0
-157 -176 0
-2 -114 0
-114 -212 0
-114 -176 0
-2 -212 0
-2 -176 0
-176 -212 0
-137 -300 0
-70 -300 0
-117 -300 0
-109 -300 0
-83 -300 0
-300 -302 0
-277 -300 0
-208 -300 0
-70 -137 0
-117 -137 0
-109 -137 0
-83 -137 0
-137 -302 0
-137 -277 0
-137 -208 0
-70 -117 0
-70 -109 0
-70 -83 0
-70 -302 0
-70 -277 0
-70 -208 0
-109 -117 0
-83 -117 0
-117 -302 0
-117 -277 0
-117 -208 0
-83 -109 0
-109 -302 0
-109 -277 0
-109 -208 0
-83 -302 0
-83 -277 0
-83 -208 0
-277 -302 0
-208 -302 0
-208 -277 0
-134 -245 0
-111 -245 0
-118 -245 0
-148 -245 0
-173 -245 0
-111 -134 0
-118 -134 0
-134 -148 0
-134 -173 0
-111 -118 0
-111 -148 0
-111 -173 0
-118 -148 0
-118 -173 0
-148 -173 0
-46 -249 0
-46 -53 0
-46 -107 0
-53 -249 0
-107 -249 0
-53 -107 0
-39 -105 0
-30 -194 0
-30 -202 0
-30 -283 0
-194 -202 0
-194 -283 0
-202 -283 0
-18 -154 0
-17 -18 0
-18 -115 0
-18 -167 0
-18 -174 0
-18 -145 0
-18 -192 0
-18 -104 0
-17 -154 0
-115 -154 0
-154 -167 0
-154 -174 0
-145 -154 0
-154 -192 0
-104 -154 0
-17 -115 0
-17 -167 0
-17 -174 0
-17 -145 0
-17 -192 0
-17 -104 0
-115 -167 0
-115 -174 0
-115 -145 0
-115 -192 0
-104 -115 0
-167 -174 0
-145 -167 0
-167 -192 0
-104 -167 0
-145 -174 0
-174 -192 0
-104 -174 0
-145 -192 0
-104 -145 0
-104 -192 0
-170 -180 0
-170 -285 0
-102 -170 0
-180 -285 0
-102 -180 0
-102 -285 0
-136 -166 0
-136 -197 0
-136 -266 0
-136 -279 0
-95 -136 0
-166 -197 0
-166 -266 0
-166 -279 0
-95 -166 0
-197 -266 0
-197 -279 0
-95 -197 0
-266 -279 0
-95 -266 0
-95 -279 0
-62 -307 0
-185 -307 0
-133 -307 0
-62 -185 0
-62 -133 0
-133 -185 0
-49 -188 0
-49 -99 0
-49 -281 0
-99 -188 0
-188 -281 0
-99 -281 0
-34 -162 0
-34 -127 0
-34 -92 0
-127 -162 0
-92 -162 0
-92 -127 0
-147 -252 0
-191 -252 0
-98 -252 0
-29 -252 0
-89 -252 0
-147 -191 0
-98 -147 0
-29 -147 0
-89 -147 0
-98 -191 0
-29 -191 0
-89 -191 0
-29 -98 0
-89 -98 0
-29 -89 0
-108 -165 0
-14 -108 0
-108 -193 0
-96 -108 0
-12 -108 0
-14 -165 0
-165 -193 0
-96 -165 0
-12 -165 0
-14 -193 0
-14 -96 0
-12 -14 0
-96 -193 0
-12 -193 0
-12 -96 0
-261 -264 0
-157 -261 0
-139 -261 0
-3 -261 0
-114 -261 0
-157 -264 0
-139 -264 0
-3 -264 0
-114 -264 0
-139 -157 0
-3 -157 0
-114 -157 0
-3 -139 0
-114 -139 0
-3 -114 0
-158 -288 0
-161 -288 0
-125 -288 0
-196 -288 0
-268 -288 0
-87 -288 0
-168 -288 0
-288 -289 0
-158 -161 0
-125 -158 0
-158 -196 0
-158 -268 0
-87 -158 0
-158 -168 0
-158 -289 0
-125 -161 0
-161 -196 0
-161 -268 0
-87 -161 0
-161 -168 0
-161 -289 0
-125 -196 0
-125 -268 0
-87 -125 0
-125 -168 0
-125 -289 0
-196 -268 0
-87 -196 0
-168 -196 0
-196 -289 0
-87 -268 0
-168 -268 0
-268 -289 0
-87 -168 0
-87 -289 0
-168 -289 0
-199 -275 0
-172 -199 0
-199 -304 0
-172 -275 0
-275 -304 0
-172 -304 0
-153 -159 0
-159 -271 0
-44 -159 0
-153 -271 0
-44 -153 0
-44 -271 0
-38 -129 0
-38 -122 0
-38 -106 0
-38 -84 0
-37 -38 0
-122 -129 0
-106 -129 0
-84 -129 0
-37 -129 0
-106 -122 0
-84 -122 0
-37 -122 0
-84 -106 0
-37 -106 0
-37 -84 0
-80 -273 0
-16 -142 0
-16 -175 0
-16 -195 0
-16 -151 0
-13 -16 0
-16 -86 0
-16 -79 0
-11 -16 0
-142 -175 0
-142 -195 0
-142 -151 0
-13 -142 0
-86 -142 0
-79 -142 0
-11 -142 0
-175 -195 0
-151 -175 0
-13 -175 0
-86 -175 0
-79 -175 0
-11 -175 0
-151 -195 0
-13 -195 0
-86 -195 0
-79 -195 0
-11 -195 0
-13 -151 0
-86 -151 0
-79 -151 0
-11 -151 0
-13 -86 0
-13 -79 0
-11 -13 0
-79 -86 0
-11 -86 0
-11 -79 0
-77 -160 0
-77 -156 0
-77 -130 0
-77 -121 0
-77 -290 0
-156 -160 0
-130 -160 0
-121 -160 0
-160 -290 0
-130 -156 0
-121 -156 0
-156 -290 0
-121 -130 0
-130 -290 0
-121 -290 0
-131 -182 0
-123 -182 0
-182 -297 0
-94 -182 0
-182 -298 0
-112 -182 0
-182 -222 0
-182 -228 0
-123 -131 0
-131 -297 0
-94 -131 0
-131 -298 0
-112 -131 0
-131 -222 0
-131 -228 0
-123 -297 0
-94 -123 0
-123 -298 0
-112 -123 0
-123 -222 0
-123 -228 0
-94 -297 0
-297 -298 0
-112 -297 0
-222 -297 0
-228 -297 0
-94 -298 0
-94 -112 0
-94 -222 0
-94 -228 0
-112 -298 0
-222 -298 0
-228 -298 0
-112 -222 0
-112 -228 0
-222 -228 0
-120 -305 0
-219 -305 0
-223 -305 0
-120 -219 0
-120 -223 0
-219 -223 0
-75 -187 0
-152 -187 0
-187 -225 0
-75 -152 0
-75 -225 0
-152 -225 0
-74 -132 0
-74 -116 0
-31 -74 0
-116 -132 0
-31 -132 0
-31 -116 0
-73 -76 0
-71 -76 0
-10 -76 0
-76 -88 0
-9 -76 0
-76 -221 0
-76 -226 0
-76 -230 0
-71 -73 0
-10 -73 0
-73 -88 0
-9 -73 0
-73 -221 0
-73 -226 0
-73 -230 0
-10 -71 0
-71 -88 0
-9 -71 0
-71 -221 0
-71 -226 0
-71 -230 0
-10 -88 0
-9 -10 0
-10 -221 0
-10 -226 0
-10 -230 0
-9 -88 0
-88 -221 0
-88 -226 0
-88 -230 0
-9 -221 0
-9 -226 0
-9 -230 0
-221 -226 0
-221 -230 0
-226 -230 0
-72 -143 0
-52 -72 0
-1 -72 0
-52 -143 0
-1 -143 0
-1 -52 0
-67 -296 0
-67 -177 0
-67 -210 0
-67 -231 0
-67 -128 0
-177 -296 0
-210 -296 0
-231 -296 0
-128 -296 0
-177 -210 0
-177 -231 0
-128 -177 0
-210 -231 0
-128 -210 0
-128 -231 0
-43 -155 0
-42 -155 0
-41 -155 0
-42 -43 0
-41 -43 0
-41 -42 0
-32 -69 0
-69 -82 0
-69 -184 0
-32 -82 0
-32 -184 0
-82 -184 0
-66 -110 0
-28 -110 0
-27 -110 0
-110 -233 0
-26 -110 0
-28 -66 0
-27 -66 0
-66 -233 0
-26 -66 0
-27 -28 0
-28 -233 0
-26 -28 0
-27 -233 0
-26 -27 0
-26 -233 0
-65 -68 0
-50 -68 0
-48 -68 0
-7 -68 0
-68 -100 0
-50 -65 0
-48 -65 0
-7 -65 0
-65 -100 0
-48 -50 0
-7 -50 0
-50 -100 0
-7 -48 0
-48 -100 0
-7 -100 0
-149 -150 0
-2 -150 0
-78 -150 0
-150 -209 0
-150 -212 0
-2 -149 0
-78 -149 0
-149 -209 0
-149 -212 0
-2 -78 0
-2 -209 0
-2 -212 0
-78 -209 0
-78 -212 0
-209 -212 0
-164 -205 0
-101 -164 0
-164 -291 0
-164 -213 0
-164 -217 0
-101 -205 0
-205 -291 0
-205 -213 0
-205 -217 0
-101 -291 0
-101 -213 0
-101 -217 0
-213 -291 0
-217 -291 0
-213 -217 0
-203 -207 0
-203 -258 0
-163 -203 0
-203 -234 0
-93 -203 0
-207 -258 0
-163 -207 0
-207 -234 0
-93 -207 0
-163 -258 0
-234 -258 0
-93 -258 0
-163 -234 0
-93 -163 0
-93 -234 0
-214 -218 0
-91 -214 0
-214 -306 0
-91 -218 0
-218 -306 0
-91 -306 0
-59 -63 0
-54 -63 0
-54 -59 0
-57 -61 0
-61 -236 0
-25 -61 0
-57 -236 0
-25 -57 0
-25 -236 0
-56 -186 0
-97 -186 0
-8 -186 0
-186 -216 0
-186 -200 0
-186 -237 0
-6 -186 0
-5 -186 0
-56 -97 0
-8 -56 0
-56 -216 0
-56 -200 0
-56 -237 0
-6 -56 0
-5 -56 0
-8 -97 0
-97 -216 0
-97 -200 0
-97 -237 0
-6 -97 0
-5 -97 0
-8 -216 0
-8 -200 0
-8 -237 0
-6 -8 0
-5 -8 0
-200 -216 0
-216 -237 0
-6 -216 0
-5 -216 0
-200 -237 0
-6 -200 0
-5 -200 0
-6 -237 0
-5 -237 0
-5 -6 0
-85 -241 0
-85 -292 0
-60 -85 0
-55 -85 0
-85 -254 0
-85 -179 0
-85 -262 0
-85 -265 0
-241 -292 0
-60 -241 0
-55 -241 0
-241 -254 0
-179 -241 0
-241 -262 0
-241 -265 0
-60 -292 0
-55 -292 0
-254 -292 0
-179 -292 0
-262 -292 0
-265 -292 0
-55 -60 0
-60 -254 0
-60 -179 0
-60 -262 0
-60 -265 0
-55 -254 0
-55 -179 0
-55 -262 0
-55 -265 0
-179 -254 0
-254 -262 0
-254 -265 0
-179 -262 0
-179 -265 0
-262 -265 0
-81 -242 0
-81 -299 0
-81 -126 0
-81 -198 0
-81 -267 0
-242 -299 0
-126 -242 0
-198 -242 0
-242 -267 0
-126 -299 0
-198 -299 0
-267 -299 0
-126 -198 0
-126 -267 0
-198 -267 0
-239 -243 0
-58 -239 0
-239 -308 0
-58 -243 0
-243 -308 0
-58 -308 0
-263 -269 0
-183 -240 0
-240 -251 0
-22 -240 0
-33 -240 0
-113 -240 0
-183 -251 0
-22 -183 0
-33 -183 0
-113 -183 0
-22 -251 0
-33 -251 0
-113 -251 0
-22 -33 0
-22 -113 0
-33 -113 0
-146 -253 0
-190 -253 0
-4 -253 0
-220 -253 0
-224 -253 0
-146 -190 0
-4 -146 0
-146 -220 0
-146 -224 0
-4 -190 0
-190 -220 0
-190 -224 0
-4 -220 0
-4 -224 0
-220 -224 0
-246 -293 0
-246 -295 0
-171 -246 0
-246 -270 0
-206 -246 0
-293 -295 0
-171 -293 0
-270 -293 0
-206 -293 0
-171 -295 0
-270 -295 0
-206 -295 0
-171 -270 0
-171 -206 0
-206 -270 0
-135 -244 0
-119 -244 0
-47 -244 0
-119 -135 0
-47 -135 0
-47 -119 0
-40 -51 0
-40 -227 0
-40 -276 0
-51 -227 0
-51 -276 0
-227 -276 0
-144 -272 0
-124 -247 0
-24 -124 0
-21 -124 0
-20 -124 0
-124 -178 0
-124 -229 0
-124 -274 0
-124 -232 0
-24 -247 0
-21 -247 0
-20 -247 0
-178 -247 0
-229 -247 0
-247 -274 0
-232 -247 0
-21 -24 0
-20 -24 0
-24 -178 0
-24 -229 0
-24 -274 0
-24 -232 0
-20 -21 0
-21 -178 0
-21 -229 0
-21 -274 0
-21 -232 0
-20 -178 0
-20 -229 0
-20 -274 0
-20 -232 0
-178 -229 0
-178 -274 0
-178 -232 0
-229 -274 0
-229 -232 0
-232 -274 0
-15 -141 0
-15 -176 0
-141 -176 0
-248 -294 0
-64 -294 0
-181 -294 0
-256 -294 0
-169 -294 0
-103 -294 0
-140 -294 0
-286 -294 0
-64 -248 0
-181 -248 0
-248 -256 0
-169 -248 0
-103 -248 0
-140 -248 0
-248 -286 0
-64 -181 0
-64 -256 0
-64 -169 0
-64 -103 0
-64 -140 0
-64 -286 0
-181 -256 0
-169 -181 0
-103 -181 0
-140 -181 0
-181 -286 0
-169 -256 0
-103 -256 0
-140 -256 0
-256 -286 0
-103 -169 0
-140 -169 0
-169 -286 0
-103 -140 0
-103 -286 0
-140 -286 0
-138 -301 0
-301 -303 0
-278 -301 0
-138 -303 0
-138 -278 0
-278 -303 0
-189 -260 0
-189 -280 0
-189 -238 0
-260 -280 0
-238 -260 0
-238 -280 0
-45 -250 0
-36 -45 0
-35 -45 0
-45 -282 0
-45 -287 0
-36 -250 0
-35 -250 0
-250 -282 0
-250 -287 0
-35 -36 0
-36 -282 0
-36 -287 0
-35 -282 0
-35 -287 0
-282 -287 0
-23 -204 0
-23 -211 0
-23 -257 0
-19 -23 0
-23 -235 0
-204 -211 0
-204 -257 0
-19 -204 0
-204 -235 0
-211 -257 0
-19 -211 0
-211 -235 0
-19 -257 0
-235 -257 0
-19 -235 0
-255 -259 0
-215 -255 0
-201 -255 0
-255 -284 0
-90 -255 0
-215 -259 0
-201 -259 0
-259 -284 0
-90 -259 0
-201 -215 0
-215 -284 0
-90 -215 0
-201 -284 0
-90 -201 0
-90 -284 0
